Version identifier: 22.1.0.0 | 2022-03-09 | 1a383f8ce
CPXPARAM_Read_DataCheck                          1
1 of 1 MIP starts provided solutions.
MIP start 'm1' defined initial solution with objective 60.0000.
Tried aggregator 4 times.
MIP Presolve eliminated 84528 rows and 8227 columns.
MIP Presolve modified 1026 coefficients.
Aggregator did 78310 substitutions.
Reduced MIP has 8648 rows, 79783 columns, and 168393 nonzeros.
Reduced MIP has 79747 binaries, 36 generals, 0 SOSs, and 0 indicators.
Presolve time = 0.98 sec. (1053.65 ticks)
Tried aggregator 1 time.
Detecting symmetries...
Reduced MIP has 8648 rows, 79783 columns, and 168393 nonzeros.
Reduced MIP has 79747 binaries, 36 generals, 0 SOSs, and 0 indicators.
Presolve time = 0.16 sec. (126.94 ticks)
Probing fixed 54 vars, tightened 0 bounds.
Probing changed sense of 8 constraints.
Probing time = 0.28 sec. (31.38 ticks)
Clique table members: 161521.
MIP emphasis: balance optimality and feasibility.
MIP search method: dynamic search.
Parallel mode: deterministic, using up to 8 threads.
Root relaxation solution time = 0.80 sec. (642.68 ticks)

        Nodes                                         Cuts/
   Node  Left     Objective  IInf  Best Integer    Best Bound    ItCnt     Gap

*     0+    0                           60.0000        0.0000           100.00%
      0     0       36.4008  6487       60.0000       36.4008       26   39.33%
      0     0       59.0000   779       60.0000      Cuts: 47    11294    1.67%
      0     0       59.0000   862       60.0000     Cuts: 170    23343    1.67%

Repeating presolve.
Tried aggregator 3 times.
MIP Presolve eliminated 1779 rows and 43611 columns.
MIP Presolve modified 7 coefficients.
Aggregator did 1387 substitutions.
Reduced MIP has 5482 rows, 34785 columns, and 74681 nonzeros.
Reduced MIP has 34785 binaries, 0 generals, 0 SOSs, and 0 indicators.
Presolve time = 0.17 sec. (156.32 ticks)
Tried aggregator 2 times.
Detecting symmetries...
MIP Presolve eliminated 0 rows and 4 columns.
MIP Presolve modified 5 coefficients.
Aggregator did 11 substitutions.
Reduced MIP has 5471 rows, 34770 columns, and 74696 nonzeros.
Reduced MIP has 34770 binaries, 0 generals, 0 SOSs, and 0 indicators.
Presolve time = 0.07 sec. (64.96 ticks)
Represolve time = 0.32 sec. (306.89 ticks)
Probing fixed 33 vars, tightened 0 bounds.
Probing time = 0.13 sec. (61.81 ticks)
Clique table members: 61957.
MIP emphasis: balance optimality and feasibility.
MIP search method: dynamic search.
Parallel mode: deterministic, using up to 8 threads.
Root relaxation solution time = 3.51 sec. (2782.71 ticks)

        Nodes                                         Cuts/
   Node  Left     Objective  IInf  Best Integer    Best Bound    ItCnt     Gap

*     0+    0                           60.0000       59.0000             1.67%
      0     0       59.0000  3622       60.0000       59.0000    23355    1.67%
      0     0       59.0000   828       60.0000      Cuts: 49    55723    1.67%
      0     0        cutoff             60.0000       60.0000   131385    0.00%
Elapsed time = 282.02 sec. (137578.16 ticks, tree = 0.01 MB, solutions = 1)

Clique cuts applied:  5
Zero-half cuts applied:  172
Lift and project cuts applied:  10
Gomory fractional cuts applied:  27

Root node processing (before b&c):
  Real time             =  282.03 sec. (137581.71 ticks)
Parallel b&c, 8 threads:
  Real time             =    0.00 sec. (0.00 ticks)
  Sync time (average)   =    0.00 sec.
  Wait time (average)   =    0.00 sec.
                          ------------
Total (root+branch&cut) =  282.03 sec. (137581.71 ticks)
